letting n =  10
letting blocks =  [[1, 1], [1, 3], [1, 10], [2, 1], [2, 4], [2, 9], [3, 2], [3, 6], [3, 8], [4, 3], [4, 6], [5, 5], [5, 8], [6, 7], [6, 8], [7, 2], [7, 8], [7, 9], [8, 2], [8, 5], [8, 6], [8, 7], [8, 10], [9, 2], [9, 5], [9, 8], [9, 9], [10, 2], [10, 3], [10, 4], [10, 7], [10, 9]]
